36
1 0 4
2 0 8
2 1 17
3 0 44
3 1 15
3 2 7
4 0 24
4 1 16
4 2 3
4 3 22
5 0 14
5 1 9
5 2 30
5 3 20
5 4 20
6 0 29
6 1 6
6 2 16
6 3 45
6 4 35
6 5 38
7 0 40
7 1 23
7 2 39
7 3 9
7 4 30
7 5 7
7 6 2
8 0 26
8 1 4
8 2 26
8 3 23
8 4 4
8 5 42
8 6 40
8 7 29
9 0 42
9 1 38
9 2 12
9 3 46
9 4 17
9 5 23
9 6 22
9 7 10
9 8 36
10 0 24
10 1 29
10 2 25
10 3 6
10 4 7
10 5 4
10 6 16
10 7 31
10 8 9
10 9 9
11 0 16
11 1 11
11 2 44
11 3 8
11 4 24
11 5 43
11 6 18
11 7 23
11 8 6
11 9 14
11 10 37
12 0 28
12 1 45
12 2 11
12 3 27
12 4 21
12 5 2
12 6 12
12 7 15
12 8 36
12 9 5
12 10 35
12 11 22
13 0 33
13 1 43
13 2 30
13 3 11
13 4 8
13 5 15
13 6 13
13 7 36
13 8 6
13 9 34
13 10 22
13 11 11
13 12 45
14 0 28
14 1 11
14 2 45
14 3 11
14 4 24
14 5 32
14 6 8
14 7 15
14 8 30
14 9 31
14 10 26
14 11 28
14 12 25
14 13 23
15 0 44
15 1 15
15 2 23
15 3 43
15 4 5
15 5 22
15 6 43
15 7 1
15 8 25
15 9 37
15 10 39
15 11 23
15 12 43
15 13 6
15 14 20
16 0 39
16 1 37
16 2 2
16 3 38
16 4 22
16 5 35
16 6 24
16 7 35
16 8 9
16 9 23
16 10 44
16 11 24
16 12 10
16 13 25
16 14 34
16 15 41
17 0 22
17 1 43
17 2 16
17 3 42
17 4 25
17 5 32
17 6 30
17 7 10
17 8 43
17 9 42
17 10 32
17 11 27
17 12 10
17 13 15
17 14 18
17 15 24
17 16 22
18 0 12
18 1 39
18 2 33
18 3 42
18 4 36
18 5 4
18 6 31
18 7 24
18 8 37
18 9 21
18 10 3
18 11 21
18 12 20
18 13 14
18 14 16
18 15 8
18 16 33
18 17 8
19 0 3
19 1 32
19 2 24
19 3 42
19 4 17
19 5 19
19 6 17
19 7 26
19 8 1
19 9 20
19 10 19
19 11 26
19 12 2
19 13 20
19 14 34
19 15 44
19 16 16
19 17 5
19 18 39
20 0 22
20 1 12
20 2 9
20 3 46
20 4 36
20 5 40
20 6 22
20 7 28
20 8 3
20 9 21
20 10 3
20 11 45
20 12 46
20 13 17
20 14 7
20 15 9
20 16 34
20 17 15
20 18 31
20 19 30
21 0 3
21 1 42
21 2 4
21 3 39
21 4 25
21 5 25
21 6 35
21 7 16
21 8 35
21 9 26
21 10 37
21 11 34
21 12 3
21 13 46
21 14 16
21 15 19
21 16 33
21 17 46
21 18 35
21 19 17
21 20 1
22 0 16
22 1 46
22 2 8
22 3 42
22 4 14
22 5 14
22 6 2
22 7 12
22 8 38
22 9 2
22 10 21
22 11 29
22 12 32
22 13 41
22 14 42
22 15 18
22 16 18
22 17 16
22 18 31
22 19 21
22 20 26
22 21 37
23 0 34
23 1 37
23 2 18
23 3 35
23 4 4
23 5 40
23 6 18
23 7 3
23 8 12
23 9 15
23 10 10
23 11 3
23 12 36
23 13 34
23 14 38
23 15 5
23 16 28
23 17 14
23 18 30
23 19 41
23 20 2
23 21 21
23 22 41
24 0 19
24 1 39
24 2 15
24 3 11
24 4 37
24 5 3
24 6 46
24 7 9
24 8 41
24 9 42
24 10 13
24 11 11
24 12 27
24 13 10
24 14 23
24 15 10
24 16 19
24 17 29
24 18 7
24 19 34
24 20 29
24 21 41
24 22 44
24 23 36
25 0 43
25 1 43
25 2 7
25 3 11
25 4 21
25 5 21
25 6 18
25 7 23
25 8 38
25 9 17
25 10 22
25 11 16
25 12 18
25 13 3
25 14 41
25 15 18
25 16 35
25 17 32
25 18 24
25 19 6
25 20 18
25 21 29
25 22 21
25 23 18
25 24 41
26 0 42
26 1 31
26 2 20
26 3 5
26 4 20
26 5 29
26 6 14
26 7 22
26 8 4
26 9 26
26 10 43
26 11 39
26 12 2
26 13 35
26 14 19
26 15 39
26 16 44
26 17 45
26 18 4
26 19 42
26 20 42
26 21 8
26 22 25
26 23 40
26 24 6
26 25 43
27 0 36
27 1 3
27 2 3
27 3 4
27 4 40
27 5 29
27 6 46
27 7 40
27 8 4
27 9 44
27 10 32
27 11 12
27 12 9
27 13 33
27 14 23
27 15 29
27 16 23
27 17 41
27 18 39
27 19 18
27 20 37
27 21 35
27 22 18
27 23 31
27 24 14
27 25 32
27 26 37
28 0 16
28 1 46
28 2 18
28 3 17
28 4 13
28 5 26
28 6 28
28 7 30
28 8 8
28 9 9
28 10 30
28 11 38
28 12 23
28 13 8
28 14 23
28 15 33
28 16 36
28 17 17
28 18 34
28 19 18
28 20 30
28 21 19
28 22 4
28 23 45
28 24 21
28 25 26
28 26 5
28 27 1
29 0 11
29 1 31
29 2 17
29 3 19
29 4 10
29 5 19
29 6 6
29 7 2
29 8 18
29 9 35
29 10 9
29 11 15
29 12 35
29 13 33
29 14 41
29 15 27
29 16 1
29 17 11
29 18 44
29 19 28
29 20 16
29 21 14
29 22 35
29 23 6
29 24 3
29 25 18
29 26 20
29 27 1
29 28 18
30 0 32
30 1 38
30 2 12
30 3 39
30 4 10
30 5 40
30 6 11
30 7 38
30 8 4
30 9 15
30 10 30
30 11 15
30 12 3
30 13 43
30 14 11
30 15 5
30 16 7
30 17 43
30 18 12
30 19 20
30 20 16
30 21 9
30 22 6
30 23 17
30 24 15
30 25 40
30 26 33
30 27 21
30 28 34
30 29 20
31 0 22
31 1 37
31 2 34
31 3 45
31 4 45
31 5 14
31 6 28
31 7 14
31 8 2
31 9 15
31 10 22
31 11 34
31 12 1
31 13 4
31 14 45
31 15 41
31 16 3
31 17 30
31 18 43
31 19 4
31 20 44
31 21 11
31 22 18
31 23 36
31 24 42
31 25 13
31 26 5
31 27 4
31 28 8
31 29 11
31 30 32
32 0 42
32 1 6
32 2 16
32 3 4
32 4 35
32 5 42
32 6 38
32 7 30
32 8 39
32 9 11
32 10 46
32 11 28
32 12 17
32 13 32
32 14 26
32 15 7
32 16 42
32 17 27
32 18 35
32 19 28
32 20 5
32 21 15
32 22 15
32 23 29
32 24 36
32 25 44
32 26 28
32 27 2
32 28 10
32 29 41
32 30 37
32 31 46
33 0 46
33 1 24
33 2 31
33 3 24
33 4 16
33 5 1
33 6 42
33 7 28
33 8 33
33 9 13
33 10 1
33 11 16
33 12 24
33 13 13
33 14 25
33 15 41
33 16 26
33 17 41
33 18 39
33 19 12
33 20 16
33 21 2
33 22 41
33 23 46
33 24 33
33 25 2
33 26 32
33 27 30
33 28 34
33 29 4
33 30 12
33 31 5
33 32 43
34 0 12
34 1 15
34 2 26
34 3 38
34 4 43
34 5 19
34 6 32
34 7 46
34 8 6
34 9 21
34 10 44
34 11 26
34 12 45
34 13 22
34 14 24
34 15 5
34 16 45
34 17 3
34 18 41
34 19 19
34 20 4
34 21 15
34 22 27
34 23 22
34 24 7
34 25 35
34 26 1
34 27 32
34 28 9
34 29 18
34 30 35
34 31 4
34 32 22
34 33 30
35 0 39
35 1 7
35 2 18
35 3 12
35 4 20
35 5 26
35 6 25
35 7 6
35 8 20
35 9 45
35 10 38
35 11 22
35 12 34
35 13 10
35 14 46
35 15 17
35 16 41
35 17 10
35 18 11
35 19 4
35 20 43
35 21 9
35 22 35
35 23 34
35 24 6
35 25 31
35 26 15
35 27 27
35 28 12
35 29 38
35 30 13
35 31 29
35 32 25
35 33 43
35 34 27
